p cnf 340 157
1 2 3 4 5 6 7 8 9 10 11 12 13 14 15 16 17 0
-1 -2 0
-1 -3 0
-1 -4 0
-1 -5 0
-1 -6 0
-1 -7 0
-1 -8 0
-1 -9 0
-1 -10 0
-1 -11 0
-1 -12 0
-1 -13 0
-1 -14 0
-1 -15 0
-1 -16 0
-1 -17 0
-2 -3 0
-2 -4 0
-2 -5 0
-2 -6 0
-2 -7 0
-2 -8 0
-2 -9 0
-2 -10 0
-2 -11 0
-2 -12 0
-2 -13 0
-2 -14 0
-2 -15 0
-2 -16 0
-2 -17 0
-3 -4 0
-3 -5 0
-3 -6 0
-3 -7 0
-3 -8 0
-3 -9 0
-3 -10 0
-3 -11 0
-3 -12 0
-3 -13 0
-3 -14 0
-3 -15 0
-3 -16 0
-3 -17 0
-4 -5 0
-4 -6 0
-4 -7 0
-4 -8 0
-4 -9 0
-4 -10 0
-4 -11 0
-4 -12 0
-4 -13 0
-4 -14 0
-4 -15 0
-4 -16 0
-4 -17 0
-5 -6 0
-5 -7 0
-5 -8 0
-5 -9 0
-5 -10 0
-5 -11 0
-5 -12 0
-5 -13 0
-5 -14 0
-5 -15 0
-5 -16 0
-5 -17 0
-6 -7 0
-6 -8 0
-6 -9 0
-6 -10 0
-6 -11 0
-6 -12 0
-6 -13 0
-6 -14 0
-6 -15 0
-6 -16 0
-6 -17 0
-7 -8 0
-7 -9 0
-7 -10 0
-7 -11 0
-7 -12 0
-7 -13 0
-7 -14 0
-7 -15 0
-7 -16 0
-7 -17 0
-8 -9 0
-8 -10 0
-8 -11 0
-8 -12 0
-8 -13 0
-8 -14 0
-8 -15 0
-8 -16 0
-8 -17 0
-9 -10 0
-9 -11 0
-9 -12 0
-9 -13 0
-9 -14 0
-9 -15 0
-9 -16 0
-9 -17 0
-10 -11 0
-10 -12 0
-10 -13 0
-10 -14 0
-10 -15 0
-10 -16 0
-10 -17 0
-11 -12 0
-11 -13 0
-11 -14 0
-11 -15 0
-11 -16 0
-11 -17 0
-12 -13 0
-12 -14 0
-12 -15 0
-12 -16 0
-12 -17 0
-13 -14 0
-13 -15 0
-13 -16 0
-13 -17 0
-14 -15 0
-14 -16 0
-14 -17 0
-15 -16 0
-15 -17 0
-16 -17 0
0 20 40 60 80 100 120 140 160 180 200 220 240 260 280 300 320 0
17 37 57 77 97 117 137 157 177 197 217 237 257 277 297 317 337 0
34 54 74 94 114 134 154 174 194 214 234 254 274 294 314 334 354 0
51 71 91 111 131 151 171 191 211 231 251 271 291 311 331 351 371 0
1 21 41 61 81 101 121 141 161 181 201 221 241 261 281 301 321 0
18 38 58 78 98 118 138 158 178 198 218 238 258 278 298 318 338 0
35 55 75 95 115 135 155 175 195 215 235 255 275 295 315 335 355 0
52 72 92 112 132 152 172 192 212 232 252 272 292 312 332 352 372 0
2 22 42 62 82 102 122 142 162 182 202 222 242 262 282 302 322 0
19 39 59 79 99 119 139 159 179 199 219 239 259 279 299 319 339 0
36 56 76 96 116 136 156 176 196 216 236 256 276 296 316 336 356 0
53 73 93 113 133 153 173 193 213 233 253 273 293 313 333 353 373 0
3 23 43 63 83 103 123 143 163 183 203 223 243 263 283 303 323 0
20 40 60 80 100 120 140 160 180 200 220 240 260 280 300 320 340 0
37 57 77 97 117 137 157 177 197 217 237 257 277 297 317 337 357 0
54 74 94 114 134 154 174 194 214 234 254 274 294 314 334 354 374 0
4 24 44 64 84 104 124 144 164 184 204 224 244 264 284 304 324 0
21 41 61 81 101 121 141 161 181 201 221 241 261 281 301 321 341 0
38 58 78 98 118 138 158 178 198 218 238 258 278 298 318 338 358 0
55 75 95 115 135 155 175 195 215 235 255 275 295 315 335 355 375 0
